(set-logic SLHV)
(declare-hvar emp IntHeap)
(declare-locvar nil IntLoc)
(declare-datatype pt_record_0 ((Pt_R_0 (loc IntLoc))))
(declare-datatype pt_record_1 ((Pt_R_1 (data Int))))
(declare-const invalidFree_0 Bool)
(declare-const loc_0 Int)
(declare-hvar AH_0 IntHeap)
(declare-hvar H_0 IntHeap)
(assert
 (let (($x270 (= loc_0 1)))
 (let (($x273 (and (and (= H_0 emp) (= AH_0 emp)) $x270)))
 (and (and $x273 (not invalidFree_0)) invalidFree_0))))
(check-sat)
